c ind 10 13 15 151 16 225 227 229 231 233 0
c ind 235 237 239 25 252 254 256 258 260 262 0
c ind 264 266 28 39 41 43 45 5 51 53 0
c ind 55 57 6 9 0
p cnf 267 980
-1 -2 11 0
-1 2 150 0
-100 101 0
-100 106 0
-101 102 0
-101 105 0
-102 103 0
-102 104 0
-103 -16 39 0
-103 -39 16 0
-104 -16 41 0
-104 -41 16 0
-105 -16 43 0
-105 -43 16 0
-106 -16 45 0
-106 -45 16 0
-107 -108 14 0
-107 108 129 0
-108 -22 109 0
-108 22 125 0
-109 -30 16 0
-109 30 110 0
-11 -12 14 0
-11 12 17 0
-110 -32 111 0
-110 32 125 0
-111 -35 112 0
-111 35 113 0
-112 -47 13 0
-112 47 16 0
-113 -59 16 0
-113 59 114 0
-114 -64 16 0
-114 64 115 0
-115 -69 16 0
-115 69 116 0
-116 -73 16 0
-116 73 117 0
-117 -77 16 0
-117 77 118 0
-118 -80 16 0
-118 80 119 0
-119 -83 16 0
-119 83 120 0
-12 -13 9 0
-12 -9 13 0
-120 -86 16 0
-120 86 121 0
-121 -89 16 0
-121 89 122 0
-122 -91 16 0
-122 91 123 0
-123 -93 124 0
-123 93 16 0
-124 -95 16 0
-124 95 125 0
-125 106 0
-125 126 0
-126 105 0
-126 127 0
-127 104 0
-127 128 0
-128 -13 39 0
-128 -39 13 0
-129 -130 150 0
-129 130 152 0
-130 -22 131 0
-130 22 146 0
-131 -30 16 0
-131 30 132 0
-132 -32 133 0
-132 32 146 0
-133 -35 16 0
-133 35 134 0
-134 -59 112 0
-134 59 135 0
-135 -64 16 0
-135 64 136 0
-136 -69 16 0
-136 69 137 0
-137 -73 16 0
-137 73 138 0
-138 -77 16 0
-138 77 139 0
-139 -80 16 0
-139 80 140 0
-14 -15 16 0
-14 -16 15 0
-140 -83 16 0
-140 83 141 0
-141 -86 16 0
-141 86 142 0
-142 -89 16 0
-142 89 143 0
-143 -91 16 0
-143 91 144 0
-144 -93 145 0
-144 93 16 0
-145 -95 16 0
-145 95 146 0
-146 106 0
-146 147 0
-147 105 0
-147 148 0
-148 103 0
-148 149 0
-149 -13 41 0
-149 -41 13 0
-150 -15 151 0
-150 -151 15 0
-152 -153 150 0
-152 153 172 0
-153 -22 154 0
-153 22 169 0
-154 -30 16 0
-154 30 155 0
-155 -32 156 0
-155 32 169 0
-156 -35 16 0
-156 35 157 0
-157 -59 16 0
-157 59 158 0
-158 -64 112 0
-158 64 159 0
-159 -69 16 0
-159 69 160 0
-16 0
-160 -73 16 0
-160 73 161 0
-161 -77 16 0
-161 77 162 0
-162 -80 16 0
-162 80 163 0
-163 -83 16 0
-163 83 164 0
-164 -86 16 0
-164 86 165 0
-165 -89 16 0
-165 89 166 0
-166 -91 16 0
-166 91 167 0
-167 -93 168 0
-167 93 16 0
-168 -95 16 0
-168 95 169 0
-169 106 0
-169 170 0
-17 -18 20 0
-17 18 150 0
-170 105 0
-170 171 0
-171 128 0
-171 149 0
-172 -173 150 0
-172 173 192 0
-173 -22 174 0
-173 22 189 0
-174 -30 16 0
-174 30 175 0
-175 -32 176 0
-175 32 189 0
-176 -35 16 0
-176 35 177 0
-177 -59 16 0
-177 59 178 0
-178 -64 16 0
-178 64 179 0
-179 -69 112 0
-179 69 180 0
-18 19 0
-18 3 0
-180 -73 16 0
-180 73 181 0
-181 -77 16 0
-181 77 182 0
-182 -80 16 0
-182 80 183 0
-183 -83 16 0
-183 83 184 0
-184 -86 16 0
-184 86 185 0
-185 -89 16 0
-185 89 186 0
-186 -91 16 0
-186 91 187 0
-187 -93 188 0
-187 93 16 0
-188 -95 16 0
-188 95 189 0
-189 106 0
-189 190 0
-19 -13 5 0
-19 -5 13 0
-190 102 0
-190 191 0
-191 -13 43 0
-191 -43 13 0
-192 -193 211 0
-192 193 150 0
-193 -22 194 0
-193 22 209 0
-194 -30 16 0
-194 30 195 0
-195 -32 196 0
-195 32 209 0
-196 -35 16 0
-196 35 197 0
-197 -59 16 0
-197 59 198 0
-198 -64 16 0
-198 64 199 0
-199 -69 16 0
-199 69 200 0
-2 3 7 0
-20 -21 14 0
-20 21 107 0
-200 -73 112 0
-200 73 201 0
-201 -77 16 0
-201 77 202 0
-202 -80 16 0
-202 80 203 0
-203 -83 16 0
-203 83 204 0
-204 -86 16 0
-204 86 205 0
-205 -89 16 0
-205 89 206 0
-206 -91 16 0
-206 91 207 0
-207 -93 208 0
-207 93 16 0
-208 -95 16 0
-208 95 209 0
-209 106 0
-209 210 0
-21 -22 29 0
-21 22 100 0
-210 127 0
-210 191 0
-211 -212 267 0
-211 212 14 0
-212 -22 213 0
-212 22 217 0
-213 -30 16 0
-213 30 214 0
-214 -32 215 0
-214 32 217 0
-215 -35 16 0
-215 35 216 0
-216 -59 217 0
-216 59 240 0
-217 218 0
-217 238 0
-218 219 0
-218 236 0
-219 220 0
-219 234 0
-22 23 26 0
-220 221 0
-220 232 0
-221 222 0
-221 230 0
-222 223 0
-222 228 0
-223 224 0
-223 226 0
-224 -16 225 0
-224 -225 16 0
-226 -16 227 0
-226 -227 16 0
-228 -16 229 0
-228 -229 16 0
-23 -24 0
-230 -16 231 0
-230 -231 16 0
-232 -16 233 0
-232 -233 16 0
-234 -16 235 0
-234 -235 16 0
-236 -16 237 0
-236 -237 16 0
-238 -16 239 0
-238 -239 16 0
-24 -25 6 0
-24 -6 25 0
-240 -64 217 0
-240 64 241 0
-241 -69 217 0
-241 69 242 0
-242 -73 243 0
-242 73 217 0
-243 -47 244 0
-243 47 217 0
-244 245 0
-244 265 0
-245 246 0
-245 263 0
-246 247 0
-246 261 0
-247 248 0
-247 259 0
-248 249 0
-248 257 0
-249 250 0
-249 255 0
-250 251 0
-250 253 0
-251 -16 252 0
-251 -252 16 0
-253 -16 254 0
-253 -254 16 0
-255 -16 256 0
-255 -256 16 0
-257 -16 258 0
-257 -258 16 0
-259 -16 260 0
-259 -260 16 0
-26 -27 0
-261 -16 262 0
-261 -262 16 0
-263 -16 264 0
-263 -264 16 0
-265 -16 266 0
-265 -266 16 0
-267 -13 15 0
-267 -15 13 0
-27 -10 28 0
-27 -28 10 0
-29 -30 13 0
-29 30 31 0
-3 -4 0
-30 -10 13 0
-30 -13 10 0
-31 -32 34 0
-31 32 100 0
-32 23 0
-32 33 0
-33 -13 6 0
-33 -6 13 0
-34 -35 46 0
-34 35 58 0
-35 36 0
-35 44 0
-36 37 0
-36 42 0
-37 38 0
-37 40 0
-38 -16 39 0
-38 -39 16 0
-4 -5 6 0
-4 -6 5 0
-40 -16 41 0
-40 -41 16 0
-42 -16 43 0
-42 -43 16 0
-44 -16 45 0
-44 -45 16 0
-46 -47 16 0
-46 47 13 0
-47 48 0
-47 56 0
-48 49 0
-48 54 0
-49 50 0
-49 52 0
-50 -16 51 0
-50 -51 16 0
-52 -16 53 0
-52 -53 16 0
-54 -16 55 0
-54 -55 16 0
-56 -16 57 0
-56 -57 16 0
-58 -59 46 0
-58 59 63 0
-59 44 0
-59 60 0
-60 42 0
-60 61 0
-61 40 0
-61 62 0
-62 -13 39 0
-62 -39 13 0
-63 -64 46 0
-63 64 68 0
-64 44 0
-64 65 0
-65 42 0
-65 66 0
-66 38 0
-66 67 0
-67 -13 41 0
-67 -41 13 0
-68 -69 46 0
-68 69 72 0
-69 44 0
-69 70 0
-7 -8 0
-70 42 0
-70 71 0
-71 62 0
-71 67 0
-72 -73 46 0
-72 73 76 0
-73 44 0
-73 74 0
-74 37 0
-74 75 0
-75 -13 43 0
-75 -43 13 0
-76 -77 16 0
-76 77 79 0
-77 44 0
-77 78 0
-78 61 0
-78 75 0
-79 -80 16 0
-79 80 82 0
-8 -10 9 0
-8 -9 10 0
-80 44 0
-80 81 0
-81 66 0
-81 75 0
-82 -83 16 0
-82 83 85 0
-83 36 0
-83 84 0
-84 -13 45 0
-84 -45 13 0
-85 -86 16 0
-85 86 88 0
-86 44 0
-86 87 0
-87 71 0
-87 75 0
-88 -89 16 0
-88 89 90 0
-89 60 0
-89 84 0
-90 -91 16 0
-90 91 92 0
-91 65 0
-91 84 0
-92 -93 94 0
-92 93 13 0
-93 70 0
-93 84 0
-94 -95 13 0
-94 95 100 0
-95 56 0
-95 96 0
-96 54 0
-96 97 0
-97 98 0
-97 99 0
-98 -13 51 0
-98 -51 13 0
-99 -13 53 0
-99 -53 13 0
1 -11 -150 0
1 -2 -11 0
1 0
1 2 -150 0
100 -101 -106 0
101 -102 -105 0
102 -103 -104 0
103 -16 -39 0
103 16 39 0
104 -16 -41 0
104 16 41 0
105 -16 -43 0
105 16 43 0
106 -16 -45 0
106 16 45 0
107 -108 -14 0
107 -14 -129 0
107 108 -129 0
108 -109 -125 0
108 -22 -109 0
108 22 -125 0
109 -16 -110 0
109 -30 -16 0
109 30 -110 0
11 -12 -14 0
11 -14 -17 0
11 12 -17 0
110 -111 -125 0
110 -32 -111 0
110 32 -125 0
111 -112 -113 0
111 -35 -112 0
111 35 -113 0
112 -13 -16 0
112 -47 -13 0
112 47 -16 0
113 -16 -114 0
113 -59 -16 0
113 59 -114 0
114 -16 -115 0
114 -64 -16 0
114 64 -115 0
115 -16 -116 0
115 -69 -16 0
115 69 -116 0
116 -16 -117 0
116 -73 -16 0
116 73 -117 0
117 -16 -118 0
117 -77 -16 0
117 77 -118 0
118 -16 -119 0
118 -80 -16 0
118 80 -119 0
119 -16 -120 0
119 -83 -16 0
119 83 -120 0
12 -9 -13 0
12 9 13 0
120 -16 -121 0
120 -86 -16 0
120 86 -121 0
121 -16 -122 0
121 -89 -16 0
121 89 -122 0
122 -16 -123 0
122 -91 -16 0
122 91 -123 0
123 -124 -16 0
123 -93 -124 0
123 93 -16 0
124 -16 -125 0
124 -95 -16 0
124 95 -125 0
125 -126 -106 0
126 -127 -105 0
127 -128 -104 0
128 -13 -39 0
128 13 39 0
129 -130 -150 0
129 -150 -152 0
129 130 -152 0
13 0
130 -131 -146 0
130 -22 -131 0
130 22 -146 0
131 -16 -132 0
131 -30 -16 0
131 30 -132 0
132 -133 -146 0
132 -32 -133 0
132 32 -146 0
133 -16 -134 0
133 -35 -16 0
133 35 -134 0
134 -112 -135 0
134 -59 -112 0
134 59 -135 0
135 -16 -136 0
135 -64 -16 0
135 64 -136 0
136 -16 -137 0
136 -69 -16 0
136 69 -137 0
137 -16 -138 0
137 -73 -16 0
137 73 -138 0
138 -16 -139 0
138 -77 -16 0
138 77 -139 0
139 -16 -140 0
139 -80 -16 0
139 80 -140 0
14 -15 -16 0
14 15 16 0
140 -16 -141 0
140 -83 -16 0
140 83 -141 0
141 -16 -142 0
141 -86 -16 0
141 86 -142 0
142 -16 -143 0
142 -89 -16 0
142 89 -143 0
143 -16 -144 0
143 -91 -16 0
143 91 -144 0
144 -145 -16 0
144 -93 -145 0
144 93 -16 0
145 -16 -146 0
145 -95 -16 0
145 95 -146 0
146 -147 -106 0
147 -148 -105 0
148 -103 -149 0
149 -13 -41 0
149 13 41 0
150 -15 -151 0
150 15 151 0
152 -150 -172 0
152 -153 -150 0
152 153 -172 0
153 -154 -169 0
153 -22 -154 0
153 22 -169 0
154 -16 -155 0
154 -30 -16 0
154 30 -155 0
155 -156 -169 0
155 -32 -156 0
155 32 -169 0
156 -16 -157 0
156 -35 -16 0
156 35 -157 0
157 -16 -158 0
157 -59 -16 0
157 59 -158 0
158 -112 -159 0
158 -64 -112 0
158 64 -159 0
159 -16 -160 0
159 -69 -16 0
159 69 -160 0
160 -16 -161 0
160 -73 -16 0
160 73 -161 0
161 -16 -162 0
161 -77 -16 0
161 77 -162 0
162 -16 -163 0
162 -80 -16 0
162 80 -163 0
163 -16 -164 0
163 -83 -16 0
163 83 -164 0
164 -16 -165 0
164 -86 -16 0
164 86 -165 0
165 -16 -166 0
165 -89 -16 0
165 89 -166 0
166 -16 -167 0
166 -91 -16 0
166 91 -167 0
167 -168 -16 0
167 -93 -168 0
167 93 -16 0
168 -16 -169 0
168 -95 -16 0
168 95 -169 0
169 -170 -106 0
17 -18 -20 0
17 -20 -150 0
17 18 -150 0
170 -171 -105 0
171 -128 -149 0
172 -150 -192 0
172 -173 -150 0
172 173 -192 0
173 -174 -189 0
173 -22 -174 0
173 22 -189 0
174 -16 -175 0
174 -30 -16 0
174 30 -175 0
175 -176 -189 0
175 -32 -176 0
175 32 -189 0
176 -16 -177 0
176 -35 -16 0
176 35 -177 0
177 -16 -178 0
177 -59 -16 0
177 59 -178 0
178 -16 -179 0
178 -64 -16 0
178 64 -179 0
179 -112 -180 0
179 -69 -112 0
179 69 -180 0
18 -3 -19 0
180 -16 -181 0
180 -73 -16 0
180 73 -181 0
181 -16 -182 0
181 -77 -16 0
181 77 -182 0
182 -16 -183 0
182 -80 -16 0
182 80 -183 0
183 -16 -184 0
183 -83 -16 0
183 83 -184 0
184 -16 -185 0
184 -86 -16 0
184 86 -185 0
185 -16 -186 0
185 -89 -16 0
185 89 -186 0
186 -16 -187 0
186 -91 -16 0
186 91 -187 0
187 -188 -16 0
187 -93 -188 0
187 93 -16 0
188 -16 -189 0
188 -95 -16 0
188 95 -189 0
189 -190 -106 0
19 -5 -13 0
19 5 13 0
190 -102 -191 0
191 -13 -43 0
191 13 43 0
192 -193 -211 0
192 -211 -150 0
192 193 -150 0
193 -194 -209 0
193 -22 -194 0
193 22 -209 0
194 -16 -195 0
194 -30 -16 0
194 30 -195 0
195 -196 -209 0
195 -32 -196 0
195 32 -209 0
196 -16 -197 0
196 -35 -16 0
196 35 -197 0
197 -16 -198 0
197 -59 -16 0
197 59 -198 0
198 -16 -199 0
198 -64 -16 0
198 64 -199 0
199 -16 -200 0
199 -69 -16 0
199 69 -200 0
2 -3 0
2 -7 0
20 -14 -107 0
20 -21 -14 0
20 21 -107 0
200 -112 -201 0
200 -73 -112 0
200 73 -201 0
201 -16 -202 0
201 -77 -16 0
201 77 -202 0
202 -16 -203 0
202 -80 -16 0
202 80 -203 0
203 -16 -204 0
203 -83 -16 0
203 83 -204 0
204 -16 -205 0
204 -86 -16 0
204 86 -205 0
205 -16 -206 0
205 -89 -16 0
205 89 -206 0
206 -16 -207 0
206 -91 -16 0
206 91 -207 0
207 -208 -16 0
207 -93 -208 0
207 93 -16 0
208 -16 -209 0
208 -95 -16 0
208 95 -209 0
209 -210 -106 0
21 -22 -29 0
21 -29 -100 0
21 22 -100 0
210 -127 -191 0
211 -212 -267 0
211 -267 -14 0
211 212 -14 0
212 -213 -217 0
212 -22 -213 0
212 22 -217 0
213 -16 -214 0
213 -30 -16 0
213 30 -214 0
214 -215 -217 0
214 -32 -215 0
214 32 -217 0
215 -16 -216 0
215 -35 -16 0
215 35 -216 0
216 -217 -240 0
216 -59 -217 0
216 59 -240 0
217 -218 -238 0
218 -219 -236 0
219 -220 -234 0
22 -23 0
22 -26 0
220 -221 -232 0
221 -222 -230 0
222 -223 -228 0
223 -224 -226 0
224 -16 -225 0
224 16 225 0
226 -16 -227 0
226 16 227 0
228 -16 -229 0
228 16 229 0
23 24 0
230 -16 -231 0
230 16 231 0
232 -16 -233 0
232 16 233 0
234 -16 -235 0
234 16 235 0
236 -16 -237 0
236 16 237 0
238 -16 -239 0
238 16 239 0
24 -6 -25 0
24 6 25 0
240 -217 -241 0
240 -64 -217 0
240 64 -241 0
241 -217 -242 0
241 -69 -217 0
241 69 -242 0
242 -243 -217 0
242 -73 -243 0
242 73 -217 0
243 -244 -217 0
243 -47 -244 0
243 47 -217 0
244 -245 -265 0
245 -246 -263 0
246 -247 -261 0
247 -248 -259 0
248 -249 -257 0
249 -250 -255 0
250 -251 -253 0
251 -16 -252 0
251 16 252 0
253 -16 -254 0
253 16 254 0
255 -16 -256 0
255 16 256 0
257 -16 -258 0
257 16 258 0
259 -16 -260 0
259 16 260 0
26 27 0
261 -16 -262 0
261 16 262 0
263 -16 -264 0
263 16 264 0
265 -16 -266 0
265 16 266 0
267 -15 -13 0
267 15 13 0
27 -10 -28 0
27 10 28 0
29 -13 -31 0
29 -30 -13 0
29 30 -31 0
3 4 0
30 -10 -13 0
30 10 13 0
31 -32 -34 0
31 -34 -100 0
31 32 -100 0
32 -23 -33 0
33 -6 -13 0
33 6 13 0
34 -35 -46 0
34 -46 -58 0
34 35 -58 0
35 -36 -44 0
36 -37 -42 0
37 -38 -40 0
38 -39 -16 0
38 39 16 0
4 -5 -6 0
4 5 6 0
40 -41 -16 0
40 41 16 0
42 -43 -16 0
42 43 16 0
44 -45 -16 0
44 45 16 0
46 -16 -13 0
46 -47 -16 0
46 47 -13 0
47 -48 -56 0
48 -49 -54 0
49 -50 -52 0
50 -51 -16 0
50 51 16 0
52 -53 -16 0
52 53 16 0
54 -55 -16 0
54 55 16 0
56 -57 -16 0
56 57 16 0
58 -46 -63 0
58 -59 -46 0
58 59 -63 0
59 -60 -44 0
60 -61 -42 0
61 -62 -40 0
62 -39 -13 0
62 39 13 0
63 -46 -68 0
63 -64 -46 0
63 64 -68 0
64 -65 -44 0
65 -66 -42 0
66 -38 -67 0
67 -41 -13 0
67 41 13 0
68 -46 -72 0
68 -69 -46 0
68 69 -72 0
69 -70 -44 0
7 8 0
70 -71 -42 0
71 -62 -67 0
72 -46 -76 0
72 -73 -46 0
72 73 -76 0
73 -74 -44 0
74 -37 -75 0
75 -43 -13 0
75 43 13 0
76 -16 -79 0
76 -77 -16 0
76 77 -79 0
77 -78 -44 0
78 -61 -75 0
79 -16 -82 0
79 -80 -16 0
79 80 -82 0
8 -9 -10 0
8 9 10 0
80 -81 -44 0
81 -66 -75 0
82 -16 -85 0
82 -83 -16 0
82 83 -85 0
83 -36 -84 0
84 -45 -13 0
84 45 13 0
85 -16 -88 0
85 -86 -16 0
85 86 -88 0
86 -87 -44 0
87 -71 -75 0
88 -16 -90 0
88 -89 -16 0
88 89 -90 0
89 -60 -84 0
90 -16 -92 0
90 -91 -16 0
90 91 -92 0
91 -65 -84 0
92 -93 -94 0
92 -94 -13 0
92 93 -13 0
93 -70 -84 0
94 -13 -100 0
94 -95 -13 0
94 95 -100 0
95 -96 -56 0
96 -97 -54 0
97 -98 -99 0
98 -51 -13 0
98 51 13 0
99 -53 -13 0
99 53 13 0
